c description: tiling of 
c generator: CNFgen (0.9.0)
c copyright: (C) 2012-2020 Massimo Lauria <massimo.lauria@uniroma1.it>
c url: https://massimolauria.net/cnfgen
c
p cnf 10 47
-1 -3 0
-1 -4 0
-1 -6 0
-1 -10 0
-3 -4 0
-3 -6 0
-3 -10 0
-4 -6 0
-4 -10 0
-6 -10 0
1 3 4 6 10 0
-1 -6 0
-1 -7 0
-1 -8 0
-6 -7 0
-6 -8 0
-7 -8 0
1 6 7 8 0
-1 -7 0
1 7 0
-1 -8 0
1 8 0
-2 -3 0
-2 -9 0
-2 -10 0
-3 -9 0
-3 -10 0
-9 -10 0
2 3 9 10 0
-2 -9 0
2 9 0
-3 -4 0
-3 -6 0
-4 -6 0
3 4 6 0
-3 -4 0
-3 -6 0
-3 -9 0
-4 -6 0
-4 -9 0
-6 -9 0
3 4 6 9 0
5 0
-6 -9 0
-6 -10 0
-9 -10 0
6 9 10 0